120
150
78
82
31
68
95
41
39
81
69
67
93
31
24
72
86
89
35
54
64
34
86
31
96
92
71
88
33
54
28
28
50
73
30
62
46
88
24
60
77
82
46
79
99
68
40
51
31
33
71
88
99
92
46
37
27
58
92
21
64
51
29
93
58
31
53
33
27
82
88
68
57
81
82
33
95
39
25
67
82
54
68
28
68
53
40
79
51
31
51
86
48
30
64
47
29
32
96
34
72
86
37
54
90
47
64
77
82
31
60
86
31
68
68
64
82
71
99
78
42
51
